NAME:  test1
TYPE: AGTSP
COMMENT: gtsp tours
DIMENSION:  73
GTSP_SETS: 13
EDGE_WEIGHT_TYPE: EXPLICIT
EDGE_WEIGHT_FORMAT: FULL_MATRIX 
EDGE_WEIGHT_SECTION
999999	0	999999	999999	999999	999999	31131	31131	31131	31123	999999	999999	31131	31131	31131	31123	999999	999999	31121	31121	31121	31113	999999	999999	31142	31142	31142	31142	31134	999999	31127	31127	31127	31119	999999	999999	31137	31137
999999	999999	0	999999	999999	999999	31131	31131	31131	31131	31123	999999	31131	31131	31131	31131	31123	999999	31121	31121	31121	31121	31113	999999	31142	31142	31142	31142	31142	31134	31127	31127	31127	31127	31119	999999	31137	31137
999999	999999	999999	0	999999	999999	31131	31131	31131	31131	31131	31123	31131	31131	31131	31131	31131	31123	31121	31121	31121	31121	31121	31113	31142	31142	31142	31142	999999	999999	31127	31127	31127	31127	31127	31119	31137	31137
999999	999999	999999	999999	0	999999	31131	31131	31131	31131	31131	999999	31131	31131	31131	31131	31131	999999	31121	31121	31121	31121	31121	999999	31142	31142	31142	31142	31142	999999	31127	31127	31127	31127	31127	999999	31137	31137
999999	999999	999999	999999	999999	0	31131	31131	31131	31131	31131	31131	31131	31131	31131	31131	31131	31131	31121	31121	31121	31121	31121	31121	31142	31142	31142	31142	31142	31142	31127	31127	31127	31127	31127	31127	31137	31137
0	999999	999999	999999	999999	999999	31131	31131	31123	999999	999999	999999	31131	31131	31123	999999	999999	999999	31121	31121	31113	999999	999999	999999	31142	31142	31142	31134	999999	999999	31127	31127	31119	999999	999999	999999	31137	31137
31131	31131	31131	31123	999999	999999	999999	0	999999	999999	999999	999999	31129	31129	31129	31121	999999	999999	31131	31131	31131	31123	999999	999999	31143	31143	31143	31143	31135	999999	31152	31152	31152	31152	31152	31144	31148	31148
31131	31131	31131	31131	31123	999999	999999	999999	0	999999	999999	999999	31129	31129	31129	31129	31121	999999	31131	31131	31131	31131	31123	999999	31143	31143	31143	31143	31143	31135	31152	31152	31152	999999	999999	999999	31148	31148
31131	31131	31131	31131	31131	31123	999999	999999	999999	0	999999	999999	31129	31129	31129	31129	31129	31121	31131	31131	31131	31131	31131	31123	31143	31143	31143	31143	999999	999999	31152	31152	31152	31152	999999	999999	31148	31148
31131	31131	31131	31131	31131	999999	999999	999999	999999	999999	0	999999	31129	31129	31129	31129	31129	999999	31131	31131	31131	31131	31131	999999	31143	31143	31143	31143	31143	999999	31152	31152	31152	31152	31152	999999	31148	31148
31131	31131	31131	31131	31131	31131	999999	999999	999999	999999	999999	0	31129	31129	31129	31129	31129	31129	31131	31131	31131	31131	31131	31131	31143	31143	31143	31143	31143	31143	31152	31152	31152	31152	31152	31152	31148	31148
31131	31131	31123	999999	999999	999999	0	999999	999999	999999	999999	999999	31129	31129	31121	999999	999999	999999	31131	31131	31123	999999	999999	999999	31143	31143	31143	31135	999999	999999	31152	31152	31152	31152	31144	999999	31148	31148
31131	31131	31131	31123	999999	999999	31129	31129	31129	31121	999999	999999	999999	0	999999	999999	999999	999999	31117	31117	31109	999999	999999	999999	31162	31162	999999	999999	999999	999999	31141	31141	31141	31141	31133	999999	31125	31125
31131	31131	31131	31131	31123	999999	31129	31129	31129	31129	31121	999999	999999	999999	0	999999	999999	999999	31117	31117	31117	31109	999999	999999	31162	31162	31162	999999	999999	999999	31141	31141	31141	31141	31141	31133	31125	31125
31131	31131	31131	31131	31131	31123	31129	31129	31129	31129	31129	31121	999999	999999	999999	0	999999	999999	31117	31117	31117	31117	31109	999999	31162	31162	31162	31162	999999	999999	31141	31141	31141	31141	999999	999999	31125	31125
31131	31131	31131	31131	31131	999999	31129	31129	31129	31129	31129	999999	999999	999999	999999	999999	0	999999	31117	31117	31117	31117	31117	31109	31162	31162	31162	31162	31162	999999	31141	31141	31141	31141	31141	999999	31125	31125
31131	31131	31131	31131	31131	31131	31129	31129	31129	31129	31129	31129	999999	999999	999999	999999	999999	0	31117	31117	31117	31117	31117	31117	31162	31162	31162	31162	31162	31162	31141	31141	31141	31141	31141	31141	31125	31125
31131	31131	31123	999999	999999	999999	31129	31129	31121	999999	999999	999999	0	999999	999999	999999	999999	999999	31117	31109	999999	999999	999999	999999	31162	31162	31162	31162	31162	31154	31141	31141	31141	31133	999999	999999	31125	31125
31121	31121	31121	31113	999999	999999	31131	31131	31131	31123	999999	999999	31117	31117	31109	999999	999999	999999	999999	0	999999	999999	999999	999999	31156	31156	31156	31156	31156	31148	31130	31130	31130	31122	999999	999999	31123	31123
31121	31121	31121	31121	31113	999999	31131	31131	31131	31131	31123	999999	31117	31117	31117	31109	999999	999999	999999	999999	0	999999	999999	999999	31156	31156	31156	999999	999999	999999	31130	31130	31130	31130	31122	999999	31123	31123
31121	31121	31121	31121	31121	31113	31131	31131	31131	31131	31131	31123	31117	31117	31117	31117	31109	999999	999999	999999	999999	0	999999	999999	31156	31156	31156	31156	999999	999999	31130	31130	31130	31130	31130	31122	31123	31123
31121	31121	31121	31121	31121	999999	31131	31131	31131	31131	31131	999999	31117	31117	31117	31117	31117	31109	999999	999999	999999	999999	0	999999	31156	31156	31156	31156	31156	999999	31130	31130	31130	31130	31130	999999	31123	31123
31121	31121	31121	31121	31121	31121	31131	31131	31131	31131	31131	31131	31117	31117	31117	31117	31117	31117	999999	999999	999999	999999	999999	0	31156	31156	31156	31156	31156	31156	31130	31130	31130	31130	31130	31130	31123	31123
31121	31121	31113	999999	999999	999999	31131	31131	31123	999999	999999	999999	31117	31109	999999	999999	999999	999999	0	999999	999999	999999	999999	999999	31156	31156	31156	31156	31148	999999	31130	31130	31122	999999	999999	999999	31123	31123
31142	31142	31142	31142	31134	999999	31143	31143	31143	31143	31135	999999	31162	31162	999999	999999	999999	999999	31156	31156	31156	31156	31156	31148	999999	0	999999	999999	999999	999999	31161	31161	31161	31161	31161	31153	31174	31174
31142	31142	31142	31142	31142	31134	31143	31143	31143	31143	31143	31135	31162	31162	31162	999999	999999	999999	31156	31156	31156	999999	999999	999999	999999	999999	0	999999	999999	999999	31161	31161	31161	999999	999999	999999	31174	31174
31142	31142	31142	31142	999999	999999	31143	31143	31143	31143	999999	999999	31162	31162	31162	31162	999999	999999	31156	31156	31156	31156	999999	999999	999999	999999	999999	0	999999	999999	31161	31161	31161	31161	999999	999999	31174	31174
31142	31142	31142	31142	31142	999999	31143	31143	31143	31143	31143	999999	31162	31162	31162	31162	31162	999999	31156	31156	31156	31156	31156	999999	999999	999999	999999	999999	0	999999	31161	31161	31161	31161	31161	999999	31174	31174
31142	31142	31142	31142	31142	31142	31143	31143	31143	31143	31143	31143	31162	31162	31162	31162	31162	31162	31156	31156	31156	31156	31156	31156	999999	999999	999999	999999	999999	0	31161	31161	31161	31161	31161	31161	31174	31174
31142	31142	31142	31134	999999	999999	31143	31143	31143	31135	999999	999999	31162	31162	31162	31162	31162	31154	31156	31156	31156	31156	31148	999999	0	999999	999999	999999	999999	999999	31161	31161	31161	31161	31153	999999	31174	31174
31127	31127	31127	31119	999999	999999	31152	31152	31152	31152	31152	31144	31141	31141	31141	31141	31133	999999	31130	31130	31130	31122	999999	999999	31161	31161	31161	31161	31161	31153	999999	0	999999	999999	999999	999999	31132	31132
31127	31127	31127	31127	31119	999999	31152	31152	31152	999999	999999	999999	31141	31141	31141	31141	31141	31133	31130	31130	31130	31130	31122	999999	31161	31161	31161	999999	999999	999999	999999	999999	0	999999	999999	999999	31132	31132
31127	31127	31127	31127	31127	31119	31152	31152	31152	31152	999999	999999	31141	31141	31141	31141	999999	999999	31130	31130	31130	31130	31130	31122	31161	31161	31161	31161	999999	999999	999999	999999	999999	0	999999	999999	31132	31132
31127	31127	31127	31127	31127	999999	31152	31152	31152	31152	31152	999999	31141	31141	31141	31141	31141	999999	31130	31130	31130	31130	31130	999999	31161	31161	31161	31161	31161	999999	999999	999999	999999	999999	0	999999	31132	31132
31127	31127	31127	31127	31127	31127	31152	31152	31152	31152	31152	31152	31141	31141	31141	31141	31141	31141	31130	31130	31130	31130	31130	31130	31161	31161	31161	31161	31161	31161	999999	999999	999999	999999	999999	0	31132	31132
31127	31127	31119	999999	999999	999999	31152	31152	31152	31152	31144	999999	31141	31141	31141	31133	999999	999999	31130	31130	31122	999999	999999	999999	31161	31161	31161	31161	31153	999999	0	999999	999999	999999	999999	999999	31132	31132
31137	31137	31137	31137	31129	999999	31148	31148	31148	31148	31148	31140	31125	31125	31125	31117	999999	999999	31123	31123	31123	31115	999999	999999	31174	31174	999999	999999	999999	999999	31132	31132	31132	31124	999999	999999	999999	0
31137	31137	31137	31137	31137	31129	31148	31148	31148	999999	999999	999999	31125	31125	31125	31125	31117	999999	31123	31123	31123	31123	31115	999999	31174	31174	31174	999999	999999	999999	31132	31132	31132	31132	31124	999999	999999	999999
GTSP_SET_SECTION:
1 1 2 3 4 5 6 -1
2 7 8 9 10 11 12 -1
3 13 14 15 16 17 18 -1
4 19 20 21 22 23 24 -1
5 25 26 27 28 29 30 -1
6 31 32 33 34 35 36 -1
7 37 38 39 40 41 42 -1
8 43 44 45 46 47 48 -1
9 49 50 51 52 53 54 -1
10 55 56 57 58 59 60 -1
11 61 62 63 64 65 66 -1
12 67 68 69 70 71 72 -1
13 73 -1
EOF